# Solution for model r10_t36_m4_9 Batch Number: 2
# Finished Task: 36 / 36
# Makespan: 790.0, Total Distance: 399.0, Total Time: 12.2827
# R O S F Batch
0 0 22 0.0 0.0 -1
1 1 25 0.0 0.0 -1
2 2 11 0.0 0.0 -1
3 3 10 0.0 0.0 -1
4 4 33 0.0 0.0 -1
5 5 12 0.0 0.0 -1
6 6 -1 0.0 0.0 -1
7 7 21 0.0 0.0 -1
8 8 15 0.0 0.0 -1
9 9 17 0.0 0.0 -1
10 3 30 255.0 280.0 0
11 2 16 244.0 278.0 0
12 5 27 297.0 336.0 0
13 8 28 413.0 439.0 0
14 5 38 388.0 410.0 0
15 8 13 233.0 267.0 0
16 2 -1 286.0 315.0 0
17 9 23 328.0 348.0 0
18 3 20 348.0 384.0 0
19 3 -1 754.0 790.0 1
20 3 41 403.0 440.0 0
21 7 44 569.0 602.0 1
22 0 29 313.0 348.0 0
23 9 -1 374.0 410.0 0
24 4 36 662.0 682.0 1
25 1 35 433.0 469.0 0
26 3 40 662.0 691.0 1
27 5 14 351.0 388.0 0
28 8 39 449.0 483.0 0
29 0 37 363.0 389.0 0
30 3 18 292.0 331.0 0
31 1 -1 755.0 790.0 1
32 5 -1 659.0 692.0 1
33 4 24 514.0 543.0 0
34 4 -1 731.0 767.0 1
35 1 31 523.0 543.0 0
36 4 34 682.0 718.0 1
37 0 45 539.0 569.0 1
38 5 32 478.0 508.0 1
39 8 43 622.0 654.0 1
40 3 19 718.0 740.0 1
41 3 26 457.0 480.0 0
42 0 -1 756.0 776.0 1
43 8 -1 664.0 696.0 1
44 7 -1 767.0 790.0 1
45 0 42 675.0 703.0 1
